Version identifier: 22.1.0.0 | 2022-03-09 | 1a383f8ce
CPXPARAM_Read_DataCheck                          1
CPXPARAM_TimeLimit                               600
Tried aggregator 3 times.
MIP Presolve eliminated 113830 rows and 9131 columns.
MIP Presolve modified 1261 coefficients.
Aggregator did 106230 substitutions.
Reduced MIP has 10640 rows, 109039 columns, and 228935 nonzeros.
Reduced MIP has 108999 binaries, 40 generals, 0 SOSs, and 0 indicators.
Presolve time = 1.79 sec. (1397.55 ticks)
Tried aggregator 1 time.
Detecting symmetries...
Reduced MIP has 10640 rows, 109039 columns, and 228935 nonzeros.
Reduced MIP has 108999 binaries, 40 generals, 0 SOSs, and 0 indicators.
Presolve time = 0.25 sec. (167.86 ticks)
Probing fixed 60 vars, tightened 0 bounds.
Probing changed sense of 16 constraints.
Probing time = 0.30 sec. (31.07 ticks)
Clique table members: 220769.
MIP emphasis: balance optimality and feasibility.
MIP search method: dynamic search.
Parallel mode: deterministic, using up to 8 threads.
Root relaxation solution time = 2.30 sec. (827.86 ticks)

        Nodes                                         Cuts/
   Node  Left     Objective  IInf  Best Integer    Best Bound    ItCnt     Gap

      0     0       40.4100  8054                     40.4100       25         
      0     0       66.0000  1172                    Cuts: 42    19411         
      0     0       66.0000   932                    Cuts: 89    33339         
      0     0       66.0000   901                    Cuts: 73    49965         
      0     0       66.0000   886                ZeroHalf: 37    60574         
      0     0       66.0000   904                ZeroHalf: 22    73102         
      0     0       66.0000   777                ZeroHalf: 24    84202         
      0     0       66.0000   868                ZeroHalf: 36    95756         
Heuristic still looking.
Heuristic still looking.

Zero-half cuts applied:  172
Lift and project cuts applied:  6
Gomory fractional cuts applied:  28

Root node processing (before b&c):
  Real time             =  600.07 sec. (278529.41 ticks)
Parallel b&c, 8 threads:
  Real time             =    0.00 sec. (0.00 ticks)
  Sync time (average)   =    0.00 sec.
  Wait time (average)   =    0.00 sec.
                          ------------
Total (root+branch&cut) =  600.07 sec. (278529.41 ticks)
